p edge 75 833
e 1 2
e 1 4
e 1 5
e 1 8
e 1 9
e 1 12
e 1 13
e 1 14
e 1 15
e 1 16
e 1 19
e 1 20
e 1 23
e 1 25
e 1 28
e 1 30
e 1 32
e 1 33
e 1 34
e 1 36
e 1 38
e 1 41
e 1 44
e 1 45
e 1 46
e 1 50
e 1 52
e 1 56
e 1 60
e 1 61
e 1 62
e 1 64
e 1 66
e 1 68
e 1 72
e 2 3
e 2 11
e 2 14
e 2 16
e 2 27
e 2 30
e 2 31
e 2 32
e 2 50
e 2 53
e 2 54
e 2 57
e 2 60
e 2 63
e 2 68
e 2 73
e 3 4
e 3 6
e 3 12
e 3 15
e 3 21
e 3 25
e 3 27
e 3 32
e 3 34
e 3 41
e 3 47
e 3 50
e 3 52
e 3 55
e 3 62
e 3 63
e 3 71
e 4 12
e 4 14
e 4 15
e 4 35
e 4 36
e 4 38
e 4 40
e 4 41
e 4 44
e 4 53
e 4 54
e 4 57
e 4 58
e 4 65
e 4 67
e 4 69
e 4 70
e 5 6
e 5 9
e 5 10
e 5 17
e 5 19
e 5 27
e 5 29
e 5 32
e 5 33
e 5 34
e 5 35
e 5 42
e 5 45
e 5 49
e 5 58
e 5 61
e 5 63
e 5 69
e 5 70
e 5 73
e 5 75
e 6 8
e 6 15
e 6 16
e 6 18
e 6 22
e 6 25
e 6 28
e 6 31
e 6 34
e 6 35
e 6 36
e 6 37
e 6 40
e 6 41
e 6 43
e 6 44
e 6 50
e 6 62
e 6 70
e 7 8
e 7 13
e 7 14
e 7 28
e 7 31
e 7 32
e 7 40
e 7 41
e 7 46
e 7 49
e 7 52
e 7 55
e 7 56
e 7 63
e 7 64
e 7 68
e 7 69
e 7 70
e 7 72
e 8 12
e 8 15
e 8 17
e 8 20
e 8 24
e 8 25
e 8 29
e 8 33
e 8 36
e 8 37
e 8 38
e 8 41
e 8 43
e 8 46
e 8 47
e 8 50
e 8 54
e 8 56
e 8 62
e 8 65
e 8 67
e 8 72
e 8 73
e 8 75
e 9 10
e 9 12
e 9 19
e 9 21
e 9 25
e 9 26
e 9 28
e 9 34
e 9 35
e 9 37
e 9 41
e 9 42
e 9 54
e 9 55
e 9 58
e 9 60
e 9 61
e 9 63
e 9 64
e 9 66
e 9 70
e 10 16
e 10 19
e 10 21
e 10 24
e 10 28
e 10 29
e 10 40
e 10 42
e 10 43
e 10 51
e 10 52
e 10 53
e 10 54
e 10 61
e 10 63
e 10 64
e 10 65
e 11 13
e 11 16
e 11 17
e 11 18
e 11 19
e 11 24
e 11 25
e 11 30
e 11 37
e 11 40
e 11 41
e 11 46
e 11 48
e 11 50
e 11 54
e 11 59
e 11 60
e 11 64
e 11 65
e 11 70
e 11 73
e 12 20
e 12 25
e 12 29
e 12 30
e 12 32
e 12 36
e 12 40
e 12 42
e 12 46
e 12 49
e 12 51
e 12 59
e 12 65
e 12 67
e 12 68
e 12 69
e 13 16
e 13 23
e 13 29
e 13 41
e 13 43
e 13 44
e 13 45
e 13 51
e 13 55
e 13 56
e 13 57
e 13 62
e 13 63
e 13 69
e 13 75
e 14 15
e 14 17
e 14 20
e 14 28
e 14 29
e 14 30
e 14 33
e 14 38
e 14 41
e 14 43
e 14 50
e 14 51
e 14 52
e 14 53
e 14 55
e 14 63
e 14 64
e 14 66
e 14 69
e 14 71
e 15 22
e 15 25
e 15 41
e 15 42
e 15 44
e 15 45
e 15 48
e 15 52
e 15 53
e 15 54
e 15 57
e 15 58
e 15 61
e 15 62
e 15 64
e 15 66
e 15 73
e 15 74
e 16 21
e 16 27
e 16 32
e 16 35
e 16 36
e 16 42
e 16 47
e 16 51
e 16 52
e 16 56
e 16 60
e 16 63
e 16 65
e 16 66
e 16 67
e 16 69
e 16 75
e 17 18
e 17 21
e 17 22
e 17 23
e 17 24
e 17 28
e 17 31
e 17 34
e 17 39
e 17 50
e 17 51
e 17 67
e 18 20
e 18 27
e 18 28
e 18 29
e 18 31
e 18 32
e 18 35
e 18 43
e 18 44
e 18 52
e 18 53
e 18 63
e 18 66
e 18 68
e 18 70
e 18 72
e 18 73
e 18 74
e 19 21
e 19 25
e 19 26
e 19 28
e 19 30
e 19 31
e 19 32
e 19 34
e 19 41
e 19 51
e 19 53
e 19 54
e 19 55
e 19 57
e 19 61
e 19 62
e 19 67
e 19 71
e 19 73
e 20 22
e 20 26
e 20 28
e 20 33
e 20 34
e 20 36
e 20 37
e 20 39
e 20 44
e 20 48
e 20 49
e 20 57
e 20 60
e 20 70
e 20 72
e 20 73
e 20 75
e 21 22
e 21 24
e 21 25
e 21 26
e 21 29
e 21 33
e 21 34
e 21 35
e 21 36
e 21 37
e 21 40
e 21 41
e 21 47
e 21 49
e 21 50
e 21 52
e 21 53
e 21 54
e 21 64
e 21 65
e 21 66
e 21 69
e 22 25
e 22 27
e 22 28
e 22 35
e 22 42
e 22 46
e 22 48
e 22 53
e 22 54
e 22 65
e 22 68
e 22 70
e 22 73
e 23 24
e 23 27
e 23 31
e 23 34
e 23 36
e 23 43
e 23 44
e 23 46
e 23 57
e 23 62
e 23 66
e 23 68
e 23 71
e 23 74
e 24 29
e 24 31
e 24 33
e 24 40
e 24 42
e 24 43
e 24 51
e 24 56
e 24 57
e 24 59
e 24 60
e 24 63
e 24 64
e 24 65
e 24 67
e 24 68
e 24 69
e 24 73
e 24 74
e 24 75
e 25 26
e 25 28
e 25 29
e 25 34
e 25 37
e 25 38
e 25 40
e 25 44
e 25 50
e 25 55
e 25 58
e 25 60
e 25 64
e 25 75
e 26 28
e 26 29
e 26 33
e 26 39
e 26 42
e 26 46
e 26 52
e 26 54
e 26 60
e 26 63
e 26 64
e 26 73
e 27 28
e 27 30
e 27 36
e 27 46
e 27 47
e 27 52
e 27 56
e 27 58
e 27 63
e 27 66
e 28 33
e 28 34
e 28 36
e 28 40
e 28 41
e 28 42
e 28 45
e 28 48
e 28 49
e 28 52
e 28 55
e 28 64
e 28 75
e 29 30
e 29 31
e 29 35
e 29 36
e 29 37
e 29 44
e 29 48
e 29 49
e 29 52
e 29 54
e 29 57
e 29 62
e 29 64
e 29 66
e 29 67
e 29 70
e 29 75
e 30 33
e 30 34
e 30 35
e 30 37
e 30 41
e 30 44
e 30 49
e 30 51
e 30 56
e 30 57
e 30 60
e 30 64
e 31 34
e 31 35
e 31 37
e 31 39
e 31 45
e 31 47
e 31 53
e 31 55
e 31 60
e 31 61
e 31 62
e 31 72
e 31 74
e 32 35
e 32 36
e 32 37
e 32 39
e 32 40
e 32 43
e 32 44
e 32 46
e 32 48
e 32 50
e 32 53
e 32 70
e 32 72
e 32 74
e 33 36
e 33 40
e 33 41
e 33 42
e 33 43
e 33 50
e 33 51
e 33 53
e 33 58
e 33 59
e 33 61
e 33 62
e 33 65
e 33 71
e 33 72
e 33 73
e 34 35
e 34 36
e 34 38
e 34 41
e 34 42
e 34 50
e 34 53
e 34 54
e 34 56
e 34 61
e 34 62
e 34 65
e 34 68
e 34 69
e 35 36
e 35 42
e 35 50
e 35 61
e 35 62
e 35 63
e 35 66
e 35 69
e 35 70
e 35 72
e 35 75
e 36 37
e 36 42
e 36 51
e 36 52
e 36 56
e 36 58
e 36 68
e 36 69
e 36 70
e 36 73
e 37 41
e 37 44
e 37 49
e 37 51
e 37 52
e 37 53
e 37 55
e 37 66
e 37 70
e 37 71
e 37 72
e 37 73
e 38 40
e 38 43
e 38 44
e 38 45
e 38 46
e 38 48
e 38 56
e 38 58
e 38 67
e 38 69
e 38 70
e 38 72
e 38 75
e 39 40
e 39 41
e 39 43
e 39 49
e 39 55
e 39 57
e 39 58
e 39 60
e 39 63
e 39 68
e 39 70
e 39 74
e 40 47
e 40 52
e 40 54
e 40 56
e 40 69
e 40 71
e 40 72
e 40 73
e 40 74
e 41 43
e 41 44
e 41 46
e 41 48
e 41 50
e 41 51
e 41 52
e 41 53
e 41 60
e 41 62
e 41 69
e 41 75
e 42 43
e 42 44
e 42 53
e 42 54
e 42 59
e 42 62
e 42 65
e 42 70
e 42 71
e 43 44
e 43 48
e 43 56
e 43 60
e 43 66
e 43 69
e 43 74
e 44 48
e 44 49
e 44 50
e 44 53
e 44 58
e 44 61
e 44 66
e 44 67
e 44 69
e 44 70
e 45 51
e 45 52
e 45 53
e 45 57
e 45 59
e 45 67
e 45 70
e 45 72
e 46 47
e 46 49
e 46 54
e 46 62
e 46 64
e 46 65
e 46 67
e 46 69
e 46 71
e 46 72
e 47 48
e 47 50
e 47 52
e 47 54
e 47 55
e 47 57
e 47 61
e 47 65
e 47 66
e 47 67
e 47 71
e 47 72
e 47 73
e 48 49
e 48 53
e 48 59
e 48 60
e 48 63
e 48 65
e 48 69
e 49 54
e 49 55
e 49 56
e 49 59
e 49 61
e 49 65
e 49 68
e 49 72
e 49 74
e 50 56
e 50 58
e 50 59
e 50 60
e 50 62
e 50 65
e 50 66
e 50 67
e 50 72
e 51 54
e 51 59
e 51 65
e 51 66
e 51 72
e 52 54
e 52 55
e 52 56
e 52 58
e 52 62
e 52 68
e 52 70
e 52 71
e 52 73
e 52 74
e 52 75
e 53 57
e 53 62
e 53 66
e 53 67
e 53 68
e 53 70
e 53 73
e 54 61
e 54 63
e 54 64
e 54 67
e 54 69
e 54 70
e 54 71
e 54 73
e 54 75
e 55 61
e 56 57
e 56 59
e 56 62
e 56 70
e 56 73
e 56 74
e 56 75
e 57 60
e 57 62
e 57 66
e 57 67
e 57 68
e 58 64
e 58 66
e 58 68
e 59 61
e 59 62
e 59 67
e 59 73
e 59 74
e 59 75
e 60 71
e 60 72
e 60 74
e 61 62
e 61 71
e 61 72
e 61 75
e 62 66
e 62 67
e 62 68
e 62 74
e 63 64
e 63 70
e 63 71
e 63 73
e 63 74
e 64 68
e 64 75
e 65 69
e 65 74
e 66 69
e 66 70
e 66 72
e 66 74
e 67 68
e 67 72
e 67 74
e 67 75
e 68 70
e 68 71
e 68 74
e 69 75
e 70 73
e 71 72
e 73 75
